50
3238 6201 85 9829 8222 9991 2634 1995 548 1939 242 6918 3657 8156 7607 3494 1668 3477 303 6484 1898 1488 8885 4371 9461 9803 6640 2498 1478 2466 7367 5119 2980 175 3511 3928 694 2495 2955 4160 4940 5657 8496 2950 949 3032 2161 5757 4763 3211 
5238 8201 2085 11829 10222 11991 5634 3995 2548 3939 2242 9918 5657 10156 9607 5494 4668 5477 2303 8484 3898 4488 10885 6371 11461 11803 8640 4498 3478 5466 9367 7119 4980 2175 5511 5928 2694 4495 4955 6160 6940 7657 11496 4950 2949 5032 4161 7757 6763 5211 
104442
